\ Model Multi-Period Capacitated Facility Location Problem with SLAs
\ LP format - for model browsing. Use MPS format to capture full model detail.
Minimize
  86.96068552950001 y[0] + 46.7367774771 y[1] + 64.95064156570001 y[2]
   + 77.6223911635 x[0,0,0] + 77.6223911635 x[0,0,1]
   + 22.9819023892 x[0,1,0] + 22.9819023892 x[0,1,1] + 3.306814366 x[0,2,0]
   + 3.306814366 x[0,2,1] + 31.6137595011 x[0,3,0] + 31.6137595011 x[0,3,1]
   + 26.84731351 x[1,0,0] + 26.84731351 x[1,0,1] + 21.1771860743 x[1,1,0]
   + 21.1771860743 x[1,1,1] + 94.2966804621 x[1,2,0]
   + 94.2966804621 x[1,2,1] + 87.6491258846 x[1,3,0]
   + 87.6491258846 x[1,3,1] + 31.5363202918 x[2,0,0]
   + 31.5363202918 x[2,0,1] + 65.57832266299999 x[2,1,0]
   + 65.57832266299999 x[2,1,1] + 39.623626916 x[2,2,0]
   + 39.623626916 x[2,2,1] + 91.4633042151 x[2,3,0]
   + 91.4633042151 x[2,3,1]
Subject To
 demand_0_period_0: x[0,0,0] + x[1,0,0] + x[2,0,0] >= 21.0297523741
 demand_1_period_0: x[0,1,0] + x[1,1,0] + x[2,1,0] >= 26.7710844227
 demand_2_period_0: x[0,2,0] + x[1,2,0] + x[2,2,0] >= 93.6717933125
 demand_3_period_0: x[0,3,0] + x[1,3,0] + x[2,3,0] >= 64.83873498609999
 demand_0_period_1: x[0,0,1] + x[1,0,1] + x[2,0,1] >= 60.9521874661
 demand_1_period_1: x[0,1,1] + x[1,1,1] + x[2,1,1] >= 17.196750955
 demand_2_period_1: x[0,2,1] + x[1,2,1] + x[2,2,1] >= 72.9397671152
 demand_3_period_1: x[0,3,1] + x[1,3,1] + x[2,3,1] >= 16.4239091268
 capacity_0_period_0: - 38.0075986316 y[0] + x[0,0,0] + x[0,1,0] + x[0,2,0]
   + x[0,3,0] <= 0
 capacity_1_period_0: - 98.9533827286 y[1] + x[1,0,0] + x[1,1,0] + x[1,2,0]
   + x[1,3,0] <= 0
 capacity_2_period_0: - 64.0359760094 y[2] + x[2,0,0] + x[2,1,0] + x[2,2,0]
   + x[2,3,0] <= 0
 capacity_0_period_1: - 55.7392794031 y[0] + x[0,0,1] + x[0,1,1] + x[0,2,1]
   + x[0,3,1] <= 0
 capacity_1_period_1: - 68.49296367389999 y[1] + x[1,0,1] + x[1,1,1]
   + x[1,2,1] + x[1,3,1] <= 0
 capacity_2_period_1: - 84.30090682700001 y[2] + x[2,0,1] + x[2,1,1]
   + x[2,2,1] + x[2,3,1] <= 0
 sla_0_period_0: x[0,0,0] + x[1,0,0] + x[2,0,0] >= 15.351719233093
 sla_0_period_1: x[0,0,1] + x[1,0,1] + x[2,0,1] >= 44.495096850253
 sla_1_period_0: x[0,1,0] + x[1,1,0] + x[2,1,0] >= 16.865783186301
 sla_1_period_1: x[0,1,1] + x[1,1,1] + x[2,1,1] >= 10.83395310165
 sla_2_period_0: x[0,2,0] + x[1,2,0] + x[2,2,0] >= 58.07651185375
 sla_2_period_1: x[0,2,1] + x[1,2,1] + x[2,2,1] >= 45.222655611424
 sla_3_period_0: x[0,3,0] + x[1,3,0] + x[2,3,0] >= 50.574213289158
 sla_3_period_1: x[0,3,1] + x[1,3,1] + x[2,3,1] >= 12.810649118904
Bounds
Binaries
 y[0] y[1] y[2]
End
